
Gurobi 11.0.3 (win64) logging started Wed Sep  4 10:58:53 2024

Set parameter LogFile to value "C:\Users\ealvarezq\Desktop\E.Representative_days_based_on_Line_Benefits_OptModel\IEEE118_mod2_ByStages_nc60/openStarNet_IEEE118_mod2_ByStages_nc60.log"
Set parameter Method to value 2
Set parameter MIPFocus to value 1
Set parameter Presolve to value 2
Set parameter RINS to value 100
Set parameter MIPGap to value 0.01
Set parameter Threads to value 24
Set parameter TimeLimit to value 259200
Set parameter IterationLimit to value 760000000
Gurobi Optimizer version 11.0.3 build v11.0.3rc0 (win64 - Windows Server 2019.0 (17763.2))

CPU model: AMD Ryzen Threadripper PRO 3955WX 16-Cores, instruction set [SSE2|AVX|AVX2]
Thread count: 16 physical cores, 32 logical processors, using up to 24 threads

Optimize a model with 85263 rows, 63070 columns and 219656 nonzeros
Model fingerprint: 0xada88eec
Variable types: 63036 continuous, 34 integer (34 binary)
Coefficient statistics:
  Matrix range     [3e-04, 9e+03]
  Objective range  [1e+00, 1e+00]
  Bounds range     [1e-04, 3e+00]
  RHS range        [2e-04, 3e+00]
Presolve removed 57631 rows and 29008 columns
Presolve time: 0.61s
Presolved: 27632 rows, 34062 columns, 101052 nonzeros
Variable types: 34028 continuous, 34 integer (34 binary)
Root relaxation presolved: 27632 rows, 34062 columns, 101052 nonzeros

Root barrier log...

Ordering time: 0.02s

Barrier statistics:
 Dense cols : 34
 AA' NZ     : 1.251e+05
 Factor NZ  : 4.845e+05 (roughly 30 MB of memory)
 Factor Ops : 1.012e+07 (less than 1 second per iteration)
 Threads    : 23

                  Objective                Residual
Iter       Primal          Dual         Primal    Dual     Compl     Time
   0   8.64693376e+06 -2.72913383e+09  1.55e+01 5.86e+03  1.47e+05     1s
   1   2.02048267e+06 -1.05112861e+09  3.36e+00 4.98e-08  3.01e+04     1s
   2   5.33693115e+05 -8.47582086e+08  6.51e-01 4.53e-08  1.34e+04     1s
   3   3.08830252e+05 -1.45305345e+08  1.98e-01 9.60e-09  2.16e+03     1s
   4   1.99782380e+05 -1.81222269e+07  1.24e-02 9.01e-10  2.31e+02     2s
   5   1.22841506e+05 -4.36242595e+06  1.23e-03 2.12e-10  5.51e+01     2s
   6   7.91045056e+04 -1.24412429e+06  5.89e-04 5.49e-11  1.62e+01     2s
   7   3.46605024e+04 -3.26972918e+05  9.84e-05 2.09e-11  4.43e+00     2s
   8   1.76152287e+04 -7.19239713e+04  3.12e-05 1.35e-11  1.10e+00     2s
   9   1.06543862e+04 -3.37624495e+04  1.65e-05 2.29e-11  5.44e-01     2s
  10   4.61841016e+03 -1.09222982e+04  5.05e-06 2.36e-11  1.90e-01     2s
  11   2.87022346e+03 -5.91769129e+03  2.54e-06 1.41e-11  1.08e-01     2s
  12   1.71713641e+03 -2.07020240e+03  9.46e-07 1.50e-11  4.64e-02     2s
  13   1.36091739e+03 -8.26330391e+02  5.41e-07 6.69e-12  2.68e-02     3s
  14   1.10188678e+03  9.20902931e+01  2.83e-07 6.13e-12  1.24e-02     3s
  15   9.54333697e+02  4.67581067e+02  1.48e-07 1.69e-11  5.96e-03     3s
  16   8.86216791e+02  6.32202558e+02  9.13e-08 1.15e-11  3.11e-03     3s
  17   8.41362227e+02  6.70139298e+02  5.62e-08 1.12e-11  2.10e-03     3s
  18   8.12604762e+02  6.96058846e+02  3.42e-08 6.08e-12  1.43e-03     3s
  19   7.96442318e+02  7.23552646e+02  2.22e-08 1.01e-11  8.92e-04     3s
  20   7.87808883e+02  7.37910364e+02  1.60e-08 1.12e-11  6.11e-04     4s
  21   7.80462101e+02  7.47334190e+02  1.08e-08 5.70e-12  4.06e-04     4s
  22   7.74183749e+02  7.58489530e+02  6.48e-09 1.98e-11  1.92e-04     4s
  23   7.68292225e+02  7.60741597e+02  2.60e-09 7.38e-12  9.24e-05     4s
  24   7.66637067e+02  7.62015681e+02  1.51e-09 1.23e-11  5.66e-05     4s
  25   7.65706980e+02  7.62766727e+02  9.11e-10 1.65e-11  3.60e-05     4s
  26   7.65201567e+02  7.63255515e+02  9.10e-10 6.61e-12  2.38e-05     4s
  27   7.64661123e+02  7.63728228e+02  2.20e-09 2.17e-11  1.14e-05     4s
  28   7.64428688e+02  7.63965419e+02  1.41e-09 2.63e-11  5.67e-06     4s
  29   7.64337952e+02  7.64063629e+02  7.12e-10 1.36e-11  3.36e-06     4s
  30   7.64284767e+02  7.64210654e+02  2.43e-09 1.63e-11  9.07e-07     4s
  31   7.64255973e+02  7.64230248e+02  8.48e-10 6.47e-12  3.15e-07     4s
  32   7.64245214e+02  7.64238754e+02  2.63e-09 2.87e-11  7.91e-08     4s
  33   7.64240950e+02  7.64240726e+02  8.89e-09 1.26e-11  2.71e-09     4s
  34   7.64240876e+02  7.64240875e+02  5.39e-10 5.29e-12  6.31e-12     4s

Barrier solved model in 34 iterations and 4.38 seconds (1.01 work units)
Optimal objective 7.64240876e+02


Root relaxation: objective 7.642409e+02, 2414 iterations, 3.85 seconds (0.76 work units)

    Nodes    |    Current Node    |     Objective Bounds      |     Work
 Expl Unexpl |  Obj  Depth IntInf | Incumbent    BestBd   Gap | It/Node Time

     0     0  764.24088    0   24          -  764.24088      -     -    4s
H    0     0                    6171.7997126  764.24088  87.6%     -    7s
H    0     0                    2280.4483169  764.24088  66.5%     -    8s
     0     0  781.59813    0   24 2280.44832  781.59813  65.7%     -   10s
H    0     0                    1977.9737049  781.59813  60.5%     -   12s
H    0     0                    1837.4071273  781.59813  57.5%     -   12s
     0     0  781.59813    0   21 1837.40713  781.59813  57.5%     -   12s
     0     0  781.59813    0   22 1837.40713  781.59813  57.5%     -   12s
     0     0  781.59813    0   20 1837.40713  781.59813  57.5%     -   13s
     0     0  781.59813    0   20 1837.40713  781.59813  57.5%     -   13s
     0     0  781.59813    0   20 1837.40713  781.59813  57.5%     -   13s
     0     0  781.66872    0   20 1837.40713  781.66872  57.5%     -   14s
     0     0  781.66872    0   20 1837.40713  781.66872  57.5%     -   14s
     0     0  781.66872    0   20 1837.40713  781.66872  57.5%     -   14s
     0     0  781.66872    0   20 1837.40713  781.66872  57.5%     -   16s
H    0     0                     873.8380732  781.66872  10.5%     -  109s
     0     2  781.66872    0   20  873.83807  781.66872  10.5%     -  110s
     3     8  858.21522    2   20  873.83807  787.08231  9.93%  2313  116s
     7    16  869.62054    3   19  873.83807  804.63990  7.92%  1773  120s
    15    22     cutoff    4       873.83807  812.90531  6.97%  1608  126s
    31    26  819.32979    5   17  873.83807  815.85985  6.63%  1654  131s
    53    26     cutoff    6       873.83807  819.40570  6.23%  1624  139s
    77    47  836.12784    7   16  873.83807  826.96941  5.36%  1733  141s
   101    65  844.84267    8   15  873.83807  834.20472  4.54%  1554  145s
   156    79  857.30046   10   13  873.83807  834.20472  4.54%  1186  151s
   225   102  847.60706   10   13  873.83807  839.75170  3.90%   992  155s
   263    92  866.27074   11   12  873.83807  840.02019  3.87%   892  160s
   364    97  864.73987   11   12  873.83807  840.02019  3.87%   746  165s
   538    73     cutoff   14       873.83807  842.65596  3.57%   630  173s
   608    63  848.38079   10   12  873.83807  842.65596  3.57%   594  177s
   672    35  851.45762   12   10  873.83807  842.65596  3.57%   575  181s
   732    24     cutoff   13       873.83807  842.65596  3.57%   586  185s
   846     8     cutoff   13       873.83807  854.87106  2.17%   565  192s
   898     0     cutoff   11       873.83807  871.89878  0.22%   550  196s

Cutting planes:
  Gomory: 1
  Implied bound: 106
  MIR: 259
  Relax-and-lift: 1

Explored 904 nodes (504125 simplex iterations) in 197.29 seconds (187.10 work units)
Thread count was 24 (of 32 available processors)

Solution count 5: 873.838 1837.41 1977.97 ... 6171.8

Optimal solution found (tolerance 1.00e-02)
Best objective 8.738380732285e+02, best bound 8.738380732285e+02, gap 0.0000%

Gurobi 11.0.3 (win64) logging started Wed Sep  4 11:02:34 2024

Set parameter LogFile to value "C:\Users\ealvarezq\Desktop\E.Representative_days_based_on_Line_Benefits_OptModel\IEEE118_mod2_ByStages_nc60/openStarNet_IEEE118_mod2_ByStages_nc60.log"
Set parameter Method to value 2
Set parameter MIPFocus to value 1
Set parameter Presolve to value 2
Set parameter RINS to value 100
Set parameter MIPGap to value 0.01
Set parameter Threads to value 24
Set parameter TimeLimit to value 259200
Set parameter IterationLimit to value 760000000
Gurobi Optimizer version 11.0.3 build v11.0.3rc0 (win64 - Windows Server 2019.0 (17763.2))

CPU model: AMD Ryzen Threadripper PRO 3955WX 16-Cores, instruction set [SSE2|AVX|AVX2]
Thread count: 16 physical cores, 32 logical processors, using up to 24 threads

Optimize a model with 85263 rows, 63036 columns and 211462 nonzeros
Model fingerprint: 0xc0a53d87
Coefficient statistics:
  Matrix range     [3e-04, 9e+03]
  Objective range  [1e+00, 1e+00]
  Bounds range     [1e-04, 3e+00]
  RHS range        [2e-04, 2e+02]
Presolve removed 63607 rows and 27817 columns
Presolve time: 0.16s
Presolved: 21656 rows, 35519 columns, 84942 nonzeros

Ordering time: 0.01s

Barrier statistics:
 AA' NZ     : 7.121e+04
 Factor NZ  : 2.845e+05 (roughly 25 MB of memory)
 Factor Ops : 4.108e+06 (less than 1 second per iteration)
 Threads    : 24

                  Objective                Residual
Iter       Primal          Dual         Primal    Dual     Compl     Time
   0   1.39957153e+07 -1.58565659e+09  8.02e+01 3.53e+02  7.75e+04     1s
   1   1.73390519e+06 -4.52005844e+08  8.92e+00 7.28e-12  1.07e+04     1s
   2   3.42693891e+05 -8.01542009e+07  1.05e+00 9.09e-12  1.39e+03     1s
   3   1.57282277e+05 -8.21058702e+06  1.81e-02 7.28e-12  1.10e+02     1s
   4   7.61359034e+04 -1.20555469e+06  6.79e-04 4.55e-12  1.65e+01     1s
   5   3.56191537e+04 -3.18079696e+05  1.46e-04 1.14e-12  4.56e+00     1s
   6   2.07866315e+04 -1.16054032e+05  5.96e-05 1.10e-12  1.76e+00     1s
   7   1.17182456e+04 -3.50712220e+04  2.65e-05 1.47e-12  6.03e-01     1s
   8   6.44337400e+03 -1.39291454e+04  1.25e-05 9.62e-13  2.62e-01     1s
   9   3.26453319e+03 -4.55987771e+03  4.94e-06 9.57e-13  1.01e-01     1s
  10   2.03093792e+03 -1.30666848e+03  2.20e-06 1.33e-12  4.30e-02     1s
  11   1.48667759e+03 -2.44921525e+02  1.09e-06 1.42e-12  2.23e-02     1s
  12   1.28823881e+03  2.73524489e+02  7.09e-07 1.33e-12  1.31e-02     1s
  13   1.15134357e+03  5.16242158e+02  4.58e-07 1.04e-12  8.18e-03     1s
  14   1.06910120e+03  6.56938442e+02  3.13e-07 1.49e-12  5.31e-03     1s
  15   9.99285415e+02  7.38113712e+02  1.93e-07 9.42e-13  3.37e-03     1s
  16   9.31829976e+02  7.92599393e+02  8.36e-08 8.64e-13  1.79e-03     1s
  17   9.15041879e+02  8.28346905e+02  5.76e-08 8.56e-13  1.12e-03     1s
  18   8.91372992e+02  8.46888052e+02  2.26e-08 1.03e-12  5.73e-04     1s
  19   8.88853424e+02  8.55944069e+02  1.91e-08 1.08e-12  4.24e-04     1s
  20   8.82782612e+02  8.63244836e+02  1.11e-08 1.12e-12  2.52e-04     1s
  21   8.79059375e+02  8.68480196e+02  6.30e-09 1.62e-12  1.36e-04     1s
  22   8.76064608e+02  8.71184664e+02  2.59e-09 9.36e-13  6.29e-05     1s
  23   8.75019287e+02  8.72364777e+02  1.34e-09 8.54e-13  3.42e-05     1s
  24   8.74444556e+02  8.72999503e+02  9.34e-10 9.54e-13  1.86e-05     1s
  25   8.74213474e+02  8.73430239e+02  7.45e-10 9.05e-13  1.01e-05     1s
  26   8.74024856e+02  8.73587590e+02  6.90e-10 8.61e-13  5.63e-06     1s
  27   8.73859344e+02  8.73764081e+02  1.04e-09 1.33e-12  1.23e-06     1s
  28   8.73840920e+02  8.73822965e+02  1.74e-10 1.07e-12  2.31e-07     1s
  29   8.73838874e+02  8.73832940e+02  1.73e-10 2.01e-12  7.65e-08     1s
  30   8.73838084e+02  8.73837919e+02  2.49e-10 1.47e-12  2.12e-09     1s
  31   8.73838074e+02  8.73838072e+02  3.21e-10 1.41e-12  2.01e-11     1s

Barrier solved model in 31 iterations and 1.03 seconds (0.44 work units)
Optimal objective 8.73838074e+02

Crossover log...

    6142 DPushes remaining with DInf 0.0000000e+00                 1s
       0 DPushes remaining with DInf 0.0000000e+00                 1s

     220 PPushes remaining with PInf 0.0000000e+00                 1s
       0 PPushes remaining with PInf 0.0000000e+00                 1s

  Push phase complete: Pinf 0.0000000e+00, Dinf 2.2247564e-12      1s

Extra simplex iterations after uncrush: 1
Iteration    Objective       Primal Inf.    Dual Inf.      Time
    2506    8.7383807e+02   0.000000e+00   0.000000e+00      1s

Solved in 2506 iterations and 1.25 seconds (0.54 work units)
Optimal objective  8.738380732e+02
